h = 10;
w = 10;
n_pieces = 6;
n_shapes = 10;
shape = [{1}, {2}, {3}, {4}, {5}, {6}, {7}, {8}, {9}, {10}];
shape_index = [{1}, {2, 3}, {4, 5}, {6, 7}, {8}, {9, 10}];
rect_rep = [1, 1, 1, 1, 1, 1];
rect_copies = 6;
coordinate_shapes = [0, 1, 2, 3, 4, 5];
rect_size = [|3, 3
|3, 4
|4, 3
|3, 6
|6, 3
|3, 7
|7, 3
|4, 4
|4, 6
|6, 4
|];
rect_offset = [|0, 0
|0, 0
|0, 0
|0, 0
|0, 0
|0, 0
|0, 0
|0, 0
|0, 0
|0, 0
|];
rectangles = [|3, 3
|3, 4
|3, 6
|3, 7
|4, 4
|4, 6
|];
